 ! --------------------------------------------------- CP Optimizer 22.1.1.0 --
 ! Satisfiability problem - 60250 variables, 675179 constraints
 ! Presolve      : 37500 extractables eliminated
 ! TimeLimit            = 3600
 ! Workers              = 1
 ! Initial process time : 6.21s (6.19s extraction + 0.02s propagation)
 !  . Log search space  : 624770.3 (before), 624770.3 (after)
 !  . Memory usage      : 444.9 MB (before), 444.9 MB (after)
 ! Using sequential search.
 ! ----------------------------------------------------------------------------
 !               Branches  Non-fixed            Branch decision
                     1099      59481        F          presenceOf(copy_bus_parking:23_0)
                     2282      57919        F          presenceOf(copy_trips:38_0)
                     3000      55141                   presenceOf(copy_trips:46_150)
                     4000      25772                   presenceOf(copy_lane_parking:4_265)
                     5000      46861                   presenceOf(copy_trips:29_312)
                     6000      38551                   presenceOf(copy_trips:30_28)
                     7000      41080        F          presenceOf(copy_trips:47_14)
                     8000      40706                  !presenceOf(copy_bus_parking:0_1)
                     9000      38587        F         !presenceOf(copy_bus_parking:31_374)
                    10000      38587        F          presenceOf(copy_bus_parking:33_19)
                    11000      20851                  !presenceOf(copy_bus_parking:1_364)
                    12000      20851        F          presenceOf(copy_bus_parking:18_371)
                    13000      38557        F          presenceOf(copy_trips:33_374)
                    14000      38557                  !presenceOf(copy_bus_parking:40_371)
                    15000      38557                  !presenceOf(copy_trips:37_63)
                    16000      24825                  !presenceOf(copy_trips:21_36)
                    17000      24825                  !presenceOf(copy_trips:41_65)
                    18000      24645                  !presenceOf(copy_bus_parking:35_28)
                    19000      24603                   presenceOf(copy_lane_parking:6_212)
                    20000      40952                   presenceOf(copy_lane_parking:6_45)
 ! Time = 49.14s, Average fail depth = 480, Memory usage = 1.6 GB
 !               Branches  Non-fixed            Branch decision
                    21000      41157                   presenceOf(copy_lane_parking:0_44)
                    22000      24756        F          presenceOf(copy_trips:5_59)
                    23000      24756        F          presenceOf(copy_trips:1_59)
                    24000      24756        F          presenceOf(copy_trips:15_59)
                    25000      24756                   presenceOf(copy_lane_parking:4_79)
                    26000      40588                   presenceOf(copy_bus_parking:47_281)
                    27000      38584                  !presenceOf(copy_bus_parking:35_371)
                    28000      38575                   presenceOf(copy_lane_parking:0_70)
                    29000      24769                   presenceOf(copy_lane_parking:1_216)
                    30000      20646        F          presenceOf(copy_trips:11_252)
                    31000      20646                  !presenceOf(copy_bus_parking:4_274)
                    32000      21121                  !presenceOf(copy_bus_parking:42_274)
                    33000      21121                  !presenceOf(copy_bus_parking:26_274)
                    34000      21121                   presenceOf(copy_lane_parking:2_261)
                    35000      30139                   presenceOf(copy_lane_parking:4_372)
                    36000      51131                   presenceOf(copy_lane_parking:6_268)
                    37000      38566                   presenceOf(copy_bus_parking:21_87)
                    38000      29630                   presenceOf(copy_trips:0_80)
                    39000      24581            245 != endOf(start_parking:42)
                    40000      55362        F          presenceOf(copy_trips:17_8)
 ! Time = 88.33s, Average fail depth = 517, Memory usage = 1.6 GB
 !               Branches  Non-fixed            Branch decision
                    41000      38852        F          presenceOf(copy_trips:20_371)
                    42000      38572        F          presenceOf(copy_trips:24_2)
                    43000      51371                  !presenceOf(copy_bus_parking:23_0)
                    44000      50020                  !presenceOf(copy_trips:22_11)
                    45000      38581                  !presenceOf(copy_trips:46_371)
                    46000      38581        F          presenceOf(copy_trips:33_369)
                    47000      38581        F          presenceOf(copy_trips:14_369)
                    48000      38581        F          presenceOf(copy_trips:16_0)
                    49000      47806                  !presenceOf(copy_trips:22_5)
                    50000      27942                   presenceOf(copy_bus_parking:26_68)
                    51000      25329        F          presenceOf(copy_trips:29_36)
                    52000      25329        F          presenceOf(copy_trips:1_36)
                    53000      25329        F          presenceOf(copy_trips:33_36)
                    54000      25329        F          presenceOf(copy_trips:28_374)
                    55000      38557                  !presenceOf(copy_trips:43_369)
                    56000      38557        F          presenceOf(copy_trips:3_374)
                    57000      38554        F          presenceOf(copy_trips:10_374)
                    58000      38551        F          presenceOf(copy_trips:11_374)
                    59000      38551                  !presenceOf(copy_trips:13_369)
                    60000      38566        F          presenceOf(copy_trips:45_374)
 ! Time = 121.03s, Average fail depth = 489, Memory usage = 1.6 GB
 !               Branches  Non-fixed            Branch decision
                    61000      38566                  !presenceOf(copy_trips:12_369)
                    62000      38566        F          presenceOf(copy_trips:44_374)
                    63000      38560        F          presenceOf(copy_trips:17_374)
                    64000      38557        F          presenceOf(copy_trips:2_374)
                    65000      38560        F          presenceOf(copy_trips:13_374)
                    66000      38563        F          presenceOf(copy_trips:39_374)
                    67000      38560        F          presenceOf(copy_trips:21_2)
                    68000      54932                   presenceOf(copy_bus_parking:31_8)
                    69000      54932                  !presenceOf(copy_bus_parking:23_4)
                    70000      54933        F          presenceOf(copy_trips:28_2)
                    71000      54933                   presenceOf(copy_lane_parking:7_71)
                    72000      54009                  !presenceOf(copy_trips:5_7)
                    73000      53871                  !presenceOf(copy_trips:36_7)
                    74000      53871                  !presenceOf(copy_trips:27_7)
                    75000      53871        F         !presenceOf(copy_trips:20_7)
                    76000      53871        F          presenceOf(copy_trips:5_9)
                    77000      53871                  !presenceOf(copy_trips:1_7)
                    78000      53871                   presenceOf(copy_trips:27_9)
                    79000      53871        F          presenceOf(copy_bus_parking:10_2)
                    80000      53710                  !presenceOf(copy_trips:2_9)
 ! Time = 150.09s, Average fail depth = 469, Memory usage = 1.6 GB
 !               Branches  Non-fixed            Branch decision
                    81000      53555                  !presenceOf(copy_trips:12_9)
                    82000      53555                  !presenceOf(copy_trips:7_9)
                    83000      53555                   presenceOf(copy_trips:15_9)
                    84000      53075        F          presenceOf(copy_bus_parking:40_97)
                    85000      41384                  !presenceOf(copy_trips:18_10)
                    86000      49397                  !presenceOf(copy_trips:21_0)
                    87000      41213        F          presenceOf(copy_trips:38_14)
                    88000      41172                   presenceOf(copy_lane_parking:4_149)
                    89000      38542                  !presenceOf(copy_trips:7_369)
                    90000      38545                  !presenceOf(copy_bus_parking:36_371)
                    91000      38566        F          presenceOf(copy_trips:48_28)
                    92000      20650        F          presenceOf(copy_trips:49_252)
                    93000      20650        F          presenceOf(copy_trips:21_2)
                    94000      41068        F          presenceOf(copy_bus_parking:40_14)
                    95000      39300                   presenceOf(copy_bus_parking:35_147)
                    96000      27763                   presenceOf(copy_trips:18_300)
                    97000      20639                   presenceOf(copy_bus_parking:24_259)
                    98000      20859                  !presenceOf(copy_trips:11_1)
                    99000      54540        F          presenceOf(copy_trips:14_8)
                     100k      54541        F          presenceOf(copy_trips:14_8)
 ! Time = 199.74s, Average fail depth = 462, Memory usage = 1.6 GB
 !               Branches  Non-fixed            Branch decision
                     101k      54541        F          presenceOf(copy_trips:32_8)
                     102k      54145        F          presenceOf(copy_trips:49_26)
                     103k      41451                  !presenceOf(copy_trips:7_19)
                     104k      41401                   presenceOf(copy_lane_parking:2_45)
                     105k      24377                   presenceOf(copy_lane_parking:6_164)
                     106k      38998                  !presenceOf(copy_bus_parking:18_368)
                     107k      20639                  !presenceOf(copy_trips:8_252)
                     108k      20639                   presenceOf(copy_lane_parking:5_52)
                     109k      40227                  !presenceOf(copy_bus_parking:43_14)
                     110k      40828                   presenceOf(copy_lane_parking:2_183)
                     111k      38578                  !presenceOf(copy_bus_parking:29_371)
                     112k      38578                  !presenceOf(copy_bus_parking:49_371)
                     113k      38575                  !presenceOf(copy_bus_parking:35_371)
                     114k      38575                   presenceOf(copy_bus_parking:9_30)
                     115k      50458                  !presenceOf(copy_trips:9_11)
                     116k      50458                  !presenceOf(copy_trips:11_10)
                     117k      50458                  !presenceOf(copy_trips:4_11)
                     118k      50458                  !presenceOf(copy_trips:1_11)
                     119k      50458        F         !presenceOf(copy_trips:34_11)
                     120k      50458                  !presenceOf(copy_trips:4_40)
 ! Time = 238.67s, Average fail depth = 455, Memory usage = 1.6 GB
 !               Branches  Non-fixed            Branch decision
                     121k      50458        F          presenceOf(copy_trips:6_10)
                     122k      50458        F          presenceOf(copy_trips:34_11)
                     123k      50458                   presenceOf(copy_trips:14_10)
                     124k      50458        F         !presenceOf(copy_trips:7_5)
                     125k      50458        F          presenceOf(copy_trips:7_5)
                     126k      50460                  !presenceOf(copy_trips:6_10)
                     127k      50458                   presenceOf(copy_lane_parking:7_311)
                     128k      54313        F         !presenceOf(copy_bus_parking:15_0)
                     129k      54604                   presenceOf(copy_lane_parking:1_246)
                     130k      38578                   presenceOf(copy_lane_parking:4_354)
                     131k      38545                   presenceOf(copy_trips:31_374)
                     132k      38545        F          presenceOf(copy_trips:47_374)
                     133k      38545        F          presenceOf(copy_trips:28_374)
                     134k      38554                  !presenceOf(copy_bus_parking:9_374)
                     135k      38581                   presenceOf(copy_lane_parking:4_284)
                     136k      41162                  !presenceOf(copy_trips:23_14)
                     137k      41138        F          presenceOf(copy_bus_parking:22_56)
                     138k      41119                  !presenceOf(copy_trips:26_14)
                     139k      41162        F          presenceOf(copy_trips:36_14)
                     140k      38563                  !presenceOf(copy_trips:35_369)
 ! Time = 272.27s, Average fail depth = 454, Memory usage = 1.6 GB
 !               Branches  Non-fixed            Branch decision
                     141k      38563        F          presenceOf(copy_trips:35_374)
                     142k      38566        F          presenceOf(copy_trips:26_14)
                     143k      40404        F          presenceOf(copy_trips:3_14)
                     144k      41634        F          presenceOf(copy_trips:44_14)
                     145k      40497        F          presenceOf(copy_trips:1_14)
                     146k      40392        F          presenceOf(copy_bus_parking:42_1)
                     147k      40433        F          presenceOf(copy_trips:25_14)
                     148k      40392        F          presenceOf(copy_trips:4_14)
                     149k      40413                  !presenceOf(copy_trips:26_56)
                     150k      40413        F          presenceOf(copy_trips:12_14)
                     151k      41634        F          presenceOf(copy_trips:1_14)
                     152k      40467        F          presenceOf(copy_trips:26_14)
                     153k      40403        F          presenceOf(copy_trips:3_14)
                     154k      40442        F          presenceOf(copy_bus_parking:0_59)
                     155k      41646                   presenceOf(copy_bus_parking:12_190)
                     156k      36930        F          presenceOf(copy_bus_parking:25_0)
                     157k      36930        F          presenceOf(copy_bus_parking:11_0)
                     158k      36930                  !presenceOf(copy_trips:35_2)
                     159k      36930        F          presenceOf(copy_bus_parking:5_0)
                     160k      36930                  !presenceOf(copy_trips:27_2)
 ! Time = 320.11s, Average fail depth = 458, Memory usage = 1.6 GB
 !               Branches  Non-fixed            Branch decision
                     161k      36930                  !presenceOf(copy_trips:17_2)
                     162k      36930                  !presenceOf(copy_bus_parking:25_0)
                     163k      36930        F          presenceOf(copy_bus_parking:11_0)
                     164k      36196                  !presenceOf(copy_trips:35_3)
                     165k      35138                  !presenceOf(copy_bus_parking:44_12)
                     166k      35138        F          presenceOf(copy_bus_parking:15_11)
                     167k      35138        F          presenceOf(copy_bus_parking:27_11)
                     168k      35138        F          presenceOf(copy_bus_parking:15_11)
                     169k      35138                  !presenceOf(copy_bus_parking:27_11)
                     170k      35138                  !presenceOf(copy_bus_parking:27_11)
                     171k      35138                  !presenceOf(copy_bus_parking:27_11)
                     172k      35138        F          presenceOf(copy_bus_parking:15_11)
                     173k      35138        F          presenceOf(copy_bus_parking:29_11)
                     174k      35138                  !presenceOf(copy_bus_parking:40_12)
                     175k      35138        F          presenceOf(copy_bus_parking:32_11)
                     176k      35138                  !presenceOf(copy_bus_parking:37_11)
                     177k      35138                  !presenceOf(copy_bus_parking:19_11)
                     178k      35138        F          presenceOf(copy_trips:24_9)
                     179k      35138                  !presenceOf(copy_bus_parking:32_11)
                     180k      35138        F          presenceOf(copy_bus_parking:27_11)
 ! Time = 344.59s, Average fail depth = 467, Memory usage = 1.6 GB
 !               Branches  Non-fixed            Branch decision
                     181k      35138        F          presenceOf(copy_bus_parking:37_11)
                     182k      35138                  !presenceOf(copy_bus_parking:24_12)
                     183k      35138        F          presenceOf(copy_bus_parking:27_11)
                     184k      35138        F          presenceOf(copy_trips:12_9)
                     185k      35138        F          presenceOf(copy_bus_parking:37_11)
                     186k      35138        F          presenceOf(copy_bus_parking:32_11)
                     187k      35138                  !presenceOf(copy_bus_parking:36_11)
                     188k      35138        F          presenceOf(copy_bus_parking:32_11)
                     189k      35138        F          presenceOf(copy_bus_parking:32_11)
                     190k      35138                  !presenceOf(copy_bus_parking:26_12)
                     191k      35138        F          presenceOf(copy_bus_parking:27_11)
                     192k      35138                  !presenceOf(copy_bus_parking:45_12)
                     193k      35138                  !presenceOf(copy_bus_parking:35_12)
                     194k      35138        F          presenceOf(copy_bus_parking:32_11)
                     195k      35138                  !presenceOf(copy_bus_parking:7_11)
                     196k      35138        F          presenceOf(copy_trips:37_9)
                     197k      35322        F          presenceOf(copy_bus_parking:7_11)
                     198k      35138                   presenceOf(copy_bus_parking:42_12)
                     199k      35138        F          presenceOf(copy_bus_parking:32_11)
                     200k      35138                  !presenceOf(copy_bus_parking:24_13)
 ! Time = 367.42s, Average fail depth = 473, Memory usage = 1.6 GB
 !               Branches  Non-fixed            Branch decision
                     201k      35138        F         !presenceOf(copy_bus_parking:15_11)
                     202k      35138                  !presenceOf(copy_bus_parking:4_12)
                     203k      35138                  !presenceOf(copy_bus_parking:46_12)
                     204k      35138        F          presenceOf(copy_bus_parking:32_11)
                     205k      35138        F          presenceOf(copy_bus_parking:15_11)
                     206k      35138                  !presenceOf(copy_bus_parking:19_11)
                     207k      35316                   presenceOf(copy_lane_parking:1_294)
                     208k      24871                   presenceOf(copy_lane_parking:0_172)
                     209k      35596                   presenceOf(copy_trips:0_55)
                     210k      38572        F         !presenceOf(copy_trips:27_369)
                     211k      38566                   presenceOf(copy_lane_parking:7_11)
                     212k      38563                   presenceOf(copy_bus_parking:41_146)
                     213k      25326                   presenceOf(copy_trips:6_231)
                     214k      20644                   presenceOf(copy_trips:48_233)
                     215k      20998                   presenceOf(copy_lane_parking:0_306)
                     216k      38575        F          presenceOf(copy_trips:37_374)
                     217k      38584        F          presenceOf(copy_trips:16_374)
                     218k      38578        F          presenceOf(copy_trips:15_374)
                     219k      38575        F         !presenceOf(copy_bus_parking:2_0)
                     220k      53662                   presenceOf(copy_lane_parking:6_252)
 ! Time = 402.20s, Average fail depth = 474, Memory usage = 1.6 GB
 !               Branches  Non-fixed            Branch decision
                     221k      20657                   presenceOf(copy_lane_parking:2_44)
                     222k      42119        F          presenceOf(copy_trips:22_56)
                     223k      41634                  !presenceOf(copy_trips:15_27)
                     224k      41628                  !presenceOf(copy_trips:32_27)
                     225k      41625        F          presenceOf(copy_bus_parking:18_19)
                     226k      41631        F          presenceOf(copy_bus_parking:0_19)
                     227k      41625        F          presenceOf(copy_bus_parking:15_19)
                     228k      41562        F          presenceOf(copy_bus_parking:30_19)
                     229k      41559        F          presenceOf(copy_bus_parking:15_19)
                     230k      41553        F          presenceOf(copy_bus_parking:33_19)
                     231k      41589        F          presenceOf(copy_bus_parking:37_19)
                     232k      41553        F          presenceOf(copy_bus_parking:2_19)
                     233k      41559        F          presenceOf(copy_bus_parking:28_19)
                     234k      41843        F          presenceOf(copy_bus_parking:33_19)
                     235k      41856        F          presenceOf(copy_bus_parking:43_56)
                     236k      41961        F          presenceOf(copy_bus_parking:8_56)
                     237k      41950        F          presenceOf(copy_trips:21_14)
                     238k      41862        F          presenceOf(copy_bus_parking:35_56)
                     239k      41958        F          presenceOf(copy_bus_parking:28_56)
                     240k      41850        F          presenceOf(copy_bus_parking:19_56)
 ! Time = 447.60s, Average fail depth = 474, Memory usage = 1.6 GB
 !               Branches  Non-fixed            Branch decision
                     241k      41957        F          presenceOf(copy_bus_parking:0_56)
                     242k      41957                  !presenceOf(copy_trips:9_14)
                     243k      41957                  !presenceOf(copy_trips:11_14)
                     244k      41823                  !presenceOf(copy_trips:17_14)
                     245k      41957                  !presenceOf(copy_trips:21_14)
                     246k      41957        F          presenceOf(copy_bus_parking:38_56)
                     247k      41863        F          presenceOf(copy_bus_parking:19_56)
                     248k      41964        F          presenceOf(copy_trips:0_14)
                     249k      41953        F          presenceOf(copy_trips:35_14)
                     250k      41850        F          presenceOf(copy_bus_parking:30_56)
                     251k      41961        F          presenceOf(copy_trips:10_14)
                     252k      41830                  !presenceOf(copy_trips:45_14)
                     253k      41960                  !presenceOf(copy_trips:6_14)
                     254k      41960                  !presenceOf(copy_trips:33_14)
                     255k      41960                  !presenceOf(copy_trips:30_14)
                     256k      41808                  !presenceOf(copy_trips:4_14)
                     257k      41960                  !presenceOf(copy_trips:39_14)
                     258k      41958                  !presenceOf(copy_trips:29_14)
                     259k      41866        F          presenceOf(copy_bus_parking:9_56)
                     260k      42000                   presenceOf(copy_bus_parking:13_56)
 ! Time = 494.87s, Average fail depth = 474, Memory usage = 1.6 GB
 !               Branches  Non-fixed            Branch decision
                     261k      41991        F          presenceOf(copy_trips:7_14)
                     262k      42000                  !presenceOf(copy_trips:14_14)
                     263k      41989                  !presenceOf(copy_trips:18_14)
                     264k      41826        F          presenceOf(copy_bus_parking:44_56)
                     265k      41992        F          presenceOf(copy_trips:35_14)
                     266k      42000        F          presenceOf(copy_bus_parking:28_56)
                     267k      41997        F          presenceOf(copy_bus_parking:11_56)
                     268k      41955        F          presenceOf(copy_trips:43_14)
                     269k      41854        F          presenceOf(copy_bus_parking:17_56)
                     270k      41944        F          presenceOf(copy_bus_parking:45_56)
                     271k      41841        F          presenceOf(copy_trips:5_14)
                     272k      41952        F          presenceOf(copy_bus_parking:39_56)
                     273k      41785        F          presenceOf(copy_trips:40_14)
                     274k      41940        F          presenceOf(copy_trips:29_14)
                     275k      41940        F          presenceOf(copy_trips:16_14)
                     276k      41940        F          presenceOf(copy_trips:5_14)
                     277k      41763        F          presenceOf(copy_trips:26_14)
                     278k      41802        F          presenceOf(copy_trips:34_14)
                     279k      41940        F          presenceOf(copy_bus_parking:5_56)
                     280k      41821        F          presenceOf(copy_bus_parking:15_56)
 ! Time = 543.13s, Average fail depth = 474, Memory usage = 1.6 GB
 !               Branches  Non-fixed            Branch decision
                     281k      41985        F          presenceOf(copy_trips:34_14)
                     282k      41982                  !presenceOf(copy_trips:33_14)
                     283k      41985                  !presenceOf(copy_trips:25_14)
                     284k      41980                  !presenceOf(copy_bus_parking:33_30)
                     285k      41982        F          presenceOf(copy_bus_parking:48_56)
                     286k      41799                   presenceOf(copy_lane_parking:5_273)
                     287k      38572                   presenceOf(copy_lane_parking:5_198)
                     288k      41463        F          presenceOf(copy_trips:36_63)
                     289k      41466                   presenceOf(copy_lane_parking:4_126)
                     290k      55593                   presenceOf(copy_lane_parking:3_132)
                     291k      53911                   presenceOf(copy_lane_parking:7_133)
                     292k      38557        F          presenceOf(copy_bus_parking:46_369)
                     293k      22767        F          presenceOf(copy_bus_parking:8_14)
                     294k      22761                   presenceOf(copy_bus_parking:15_6)
                     295k      32869                   presenceOf(copy_bus_parking:33_261)
                     296k      21124        F          presenceOf(copy_trips:16_0)
                     297k      41329        F          presenceOf(copy_trips:2_14)
                     298k      41329                  !presenceOf(copy_bus_parking:18_59)
                     299k      41329        F          presenceOf(copy_trips:11_14)
                     300k      41329                   presenceOf(copy_lane_parking:0_263)
 ! Time = 591.92s, Average fail depth = 473, Memory usage = 1.6 GB
 !               Branches  Non-fixed            Branch decision
                     301k      38566                   presenceOf(copy_lane_parking:6_313)
                     302k      24739                   presenceOf(copy_lane_parking:5_107)
                     303k      38572                   presenceOf(copy_lane_parking:3_38)
                     304k      53810        F          presenceOf(copy_bus_parking:9_0)
                     305k      55051                   presenceOf(copy_lane_parking:4_63)
                     306k      38581                   presenceOf(copy_lane_parking:2_237)
                     307k      24575                  !presenceOf(copy_trips:15_28)
                     308k      24575                  !presenceOf(copy_bus_parking:40_374)
                     309k      38545                  !presenceOf(copy_bus_parking:28_374)
                     310k      38542                  !presenceOf(copy_bus_parking:34_374)
                     311k      38539                  !presenceOf(copy_bus_parking:48_374)
                     312k      38542                   presenceOf(copy_lane_parking:3_282)
                     313k      38581                   presenceOf(copy_lane_parking:6_226)
                     314k      55085                   presenceOf(copy_lane_parking:2_13)
                     315k      41276        F          presenceOf(copy_bus_parking:31_59)
                     316k      41276                  !presenceOf(copy_bus_parking:12_14)
                     317k      41276                  !presenceOf(copy_bus_parking:18_14)
                     318k      41257        F          presenceOf(copy_bus_parking:5_63)
                     319k      41133                  !presenceOf(copy_trips:28_62)
                     320k      37812        F          presenceOf(copy_trips:0_135)
 ! Time = 637.69s, Average fail depth = 473, Memory usage = 1.6 GB
 !               Branches  Non-fixed            Branch decision
                     321k      26508        F          presenceOf(copy_trips:36_171)
                     322k      12177        F          presenceOf(copy_trips:3_298)
 *                   322k  641.12s                   -
 ! ----------------------------------------------------------------------------
 ! Search completed, 1 solution found.
 ! ----------------------------------------------------------------------------
 ! Number of branches     : 322836
 ! Number of fails        : 131485
 ! Total memory usage     : 1.8 GB (1.8 GB CP Optimizer + 0.0 GB Concert)
 ! Time spent in solve    : 641.13s (634.94s engine + 6.19s extraction)
 ! Search speed (br. / s) : 508.5
 ! ----------------------------------------------------------------------------
